(declare-fun var0 () String)
(assert (str.in.re var0 (re.++ (re.union (re.union (re.+ (re.* (re.+ (re.union (re.+ (re.* (re.* (re.union (re.union (re.* (re.union (re.* (re.union (re.+ (re.+ (re.union (str.to.re "rrrr") (str.to.re "sss")))) (re.union (re.+ (re.union (str.to.re "ttttt") (str.to.re "uu"))) (re.+ (re.+ (str.to.re "vvv")))))) (re.+ (re.* (re.+ (re.union (re.* (str.to.re "wwwww")) (re.union (str.to.re "xxx") (str.to.re "yyyy")))))))) (re.* (re.* (re.union (re.+ (re.+ (re.+ (re.union (str.to.re "zz") (str.to.re "AAAAA"))))) (re.union (re.+ (re.union (re.+ (str.to.re "BBB")) (re.* (str.to.re "CCCC")))) (re.union (re.union (re.union (str.to.re "DD") (str.to.re "EEEE")) (re.union (str.to.re "FFFF") (str.to.re "GGGG"))) (re.+ (re.+ (str.to.re "HHHH"))))))))) (re.+ (re.+ (re.+ (re.+ (re.union (re.* (re.union (re.union (str.to.re "IIII") (str.to.re "JJJ")) (re.+ (str.to.re "KKK")))) (re.+ (re.union (re.+ (str.to.re "LLLL")) (re.* (str.to.re "MMMM"))))))))))))) (re.union (re.union (re.+ (re.union (re.+ (re.union (re.* (re.* (re.* (re.* (re.* (re.* (str.to.re "NNNNN"))))))) (re.+ (re.* (re.union (re.* (re.* (re.+ (str.to.re "OO")))) (re.* (re.* (re.union (str.to.re "PPPP") (str.to.re "QQQ"))))))))) (re.* (re.union (re.union (re.* (re.union (re.union (re.union (re.* (str.to.re "RRRR")) (re.union (str.to.re "SSS") (str.to.re "TT"))) (re.* (re.* (str.to.re "UUU")))) (re.+ (re.+ (re.+ (str.to.re "VV")))))) (re.+ (re.union (re.union (re.* (re.* (str.to.re "WWW"))) (re.union (re.union (str.to.re "XXXXX") (str.to.re "YYY")) (re.union (str.to.re "ZZZZZ") (str.to.re "!!")))) (re.+ (re.union (re.union (str.to.re """""""""""") (str.to.re "##")) (re.+ (str.to.re "$$$$"))))))) (re.+ (re.* (re.* (re.+ (re.union (re.union (str.to.re "%%%%") (str.to.re "&&&")) (re.+ (str.to.re "''''"))))))))))) (re.union (re.* (re.+ (re.union (re.+ (re.* (re.union (re.+ (re.* (re.union (str.to.re "((") (str.to.re ")))))")))) (re.union (re.* (re.+ (str.to.re "**"))) (re.+ (re.union (str.to.re "+++++") (str.to.re ",,,,,"))))))) (re.* (re.* (re.union (re.union (re.+ (re.union (str.to.re "--") (str.to.re ".."))) (re.+ (re.* (str.to.re "/////")))) (re.union (re.union (re.+ (str.to.re ":::")) (re.+ (str.to.re ";;;;;"))) (re.union (re.* (str.to.re "<<<<<")) (re.* (str.to.re "==")))))))))) (re.union (re.+ (re.+ (re.+ (re.union (re.union (re.* (re.* (re.* (str.to.re ">>")))) (re.union (re.* (re.+ (str.to.re "??"))) (re.union (re.* (str.to.re "@@@")) (re.* (str.to.re "[["))))) (re.union (re.+ (re.union (re.* (str.to.re "\\\\\\")) (re.union (str.to.re "]]]]") (str.to.re "^^^^^")))) (re.union (re.+ (re.+ (str.to.re "_____"))) (re.union (re.union (str.to.re "```") (str.to.re "{{{{{")) (re.union (str.to.re "|||||") (str.to.re "}}}"))))))))) (re.union (re.* (re.union (re.+ (re.* (re.union (re.union (re.+ (str.to.re "~~~~~")) (re.union (str.to.re "0000") (str.to.re "111"))) (re.+ (re.union (str.to.re "222") (str.to.re "33")))))) (re.+ (re.* (re.union (re.union (re.+ (str.to.re "44")) (re.* (str.to.re "55"))) (re.* (re.union (str.to.re "666") (str.to.re "77777")))))))) (re.+ (re.* (re.+ (re.+ (re.* (re.* (re.union (str.to.re "888") (str.to.re "99999")))))))))))) (re.union (re.* (re.union (re.union (re.* (re.* (re.* (re.* (re.* (re.* (re.* (str.to.re "aa")))))))) (re.* (re.* (re.* (re.* (re.union (re.union (re.* (str.to.re "bb")) (re.union (str.to.re "ccccc") (str.to.re "dd"))) (re.+ (re.* (str.to.re "eeee"))))))))) (re.* (re.union (re.union (re.union (re.+ (re.* (re.+ (re.+ (str.to.re "fff"))))) (re.+ (re.+ (re.union (re.+ (str.to.re "gg")) (re.+ (str.to.re "hhhhh")))))) (re.* (re.union (re.union (re.* (re.union (str.to.re "ii") (str.to.re "jjj"))) (re.union (re.+ (str.to.re "kkkkk")) (re.+ (str.to.re "lll")))) (re.* (re.* (re.+ (str.to.re "mmmmm"))))))) (re.* (re.union (re.union (re.+ (re.union (re.* (str.to.re "nn")) (re.* (str.to.re "ooooo")))) (re.+ (re.+ (re.+ (str.to.re "ppp"))))) (re.+ (re.* (re.* (re.+ (str.to.re "qqqqq"))))))))))) (re.+ (re.* (re.+ (re.+ (re.* (re.union (re.+ (re.* (re.union (re.+ (str.to.re "rrr")) (re.union (str.to.re "ss") (str.to.re "ttttt"))))) (re.union (re.* (re.* (re.+ (str.to.re "uuuuu")))) (re.+ (re.* (re.union (str.to.re "vvv") (str.to.re "ww"))))))))))))))))) (re.* (re.union (re.* (re.+ (re.union (re.union (re.+ (re.+ (re.+ (re.union (re.union (re.* (re.* (re.* (re.* (re.union (str.to.re "xx") (str.to.re "yyy")))))) (re.union (re.+ (re.+ (re.+ (re.+ (str.to.re "zzzzz"))))) (re.union (re.* (re.+ (re.* (str.to.re "AAAAA")))) (re.union (re.+ (re.* (str.to.re "BBBBB"))) (re.+ (re.+ (str.to.re "CC"))))))) (re.* (re.* (re.union (re.union (re.union (re.+ (str.to.re "DD")) (re.union (str.to.re "EEEE") (str.to.re "FFFFF"))) (re.* (re.union (str.to.re "GG") (str.to.re "HHHH")))) (re.* (re.union (re.+ (str.to.re "IIII")) (re.+ (str.to.re "JJJJ"))))))))))) (re.+ (re.union (re.+ (re.+ (re.union (re.union (re.+ (re.* (re.+ (re.* (str.to.re "KKKK"))))) (re.* (re.+ (re.+ (re.union (str.to.re "LLL") (str.to.re "MMMM")))))) (re.* (re.union (re.union (re.+ (re.union (str.to.re "NNNNN") (str.to.re "OOOOO"))) (re.* (re.* (str.to.re "PPPP")))) (re.* (re.+ (re.union (str.to.re "QQQQQ") (str.to.re "RRRRR"))))))))) (re.+ (re.+ (re.+ (re.+ (re.+ (re.* (re.+ (re.union (str.to.re "SS") (str.to.re "TTTT")))))))))))) (re.* (re.+ (re.* (re.* (re.union (re.+ (re.* (re.union (re.+ (re.+ (re.union (str.to.re "UUU") (str.to.re "VVVV")))) (re.+ (re.* (re.union (str.to.re "WWWWW") (str.to.re "XXXX"))))))) (re.+ (re.+ (re.* (re.+ (re.* (re.union (str.to.re "YYY") (str.to.re "ZZZZ"))))))))))))))) (re.* (re.union (re.union (re.+ (re.union (re.+ (re.+ (re.union (re.* (re.* (re.* (re.* (re.* (re.+ (str.to.re "!!!!"))))))) (re.* (re.* (re.* (re.+ (re.union (re.* (str.to.re """""""""")) (re.+ (str.to.re "#####")))))))))) (re.* (re.+ (re.* (re.+ (re.union (re.* (re.union (re.* (re.union (str.to.re "$$$") (str.to.re "%%%%%"))) (re.* (re.union (str.to.re "&&") (str.to.re "''''"))))) (re.+ (re.+ (re.union (re.+ (str.to.re "((((")) (re.* (str.to.re "))")))))))))))) (re.+ (re.* (re.union (re.* (re.+ (re.* (re.+ (re.union (re.* (re.+ (re.union (str.to.re "*****") (str.to.re "++++")))) (re.+ (re.union (re.* (str.to.re ",,,,,")) (re.union (str.to.re "----") (str.to.re "..."))))))))) (re.+ (re.+ (re.* (re.* (re.+ (re.* (re.+ (re.union (str.to.re "/////") (str.to.re ":::"))))))))))))) (re.* (re.* (re.* (re.union (re.+ (re.union (re.union (re.* (re.+ (re.+ (re.* (re.* (str.to.re ";;")))))) (re.union (re.union (re.* (re.union (re.union (str.to.re "<<<") (str.to.re "=====")) (re.* (str.to.re ">>>>")))) (re.union (re.union (re.+ (str.to.re "??")) (re.union (str.to.re "@@") (str.to.re "[[[["))) (re.+ (re.* (str.to.re "\\\\\\\\"))))) (re.union (re.union (re.union (re.* (str.to.re "]]]")) (re.* (str.to.re "^^^^^"))) (re.* (re.union (str.to.re "__") (str.to.re "``")))) (re.union (re.* (re.* (str.to.re "{{{"))) (re.union (re.+ (str.to.re "||||")) (re.union (str.to.re "}}") (str.to.re "~~~~"))))))) (re.union (re.+ (re.+ (re.union (re.* (re.union (str.to.re "00") (str.to.re "111"))) (re.union (re.union (str.to.re "2222") (str.to.re "33333")) (re.union (str.to.re "444") (str.to.re "55555")))))) (re.+ (re.union (re.* (re.+ (re.+ (str.to.re "66")))) (re.* (re.+ (re.union (str.to.re "77") (str.to.re "88888"))))))))) (re.union (re.* (re.union (re.union (re.union (re.+ (re.union (re.+ (str.to.re "999")) (re.* (str.to.re "aa")))) (re.union (re.* (re.+ (str.to.re "bbbbb"))) (re.* (re.* (str.to.re "cc"))))) (re.* (re.* (re.union (re.+ (str.to.re "dddd")) (re.+ (str.to.re "ee")))))) (re.+ (re.union (re.+ (re.union (re.* (str.to.re "fffff")) (re.* (str.to.re "ggggg")))) (re.* (re.* (re.* (str.to.re "hhhh")))))))) (re.* (re.+ (re.+ (re.* (re.+ (re.union (re.* (str.to.re "iiiii")) (re.union (str.to.re "jj") (str.to.re "kk")))))))))))))))))) (re.+ (re.+ (re.+ (re.union (re.+ (re.union (re.+ (re.union (re.+ (re.union (re.+ (re.union (re.+ (re.* (re.+ (re.union (re.* (str.to.re "llll")) (re.* (str.to.re "mmmm")))))) (re.+ (re.+ (re.+ (re.* (re.union (str.to.re "nnn") (str.to.re "oo")))))))) (re.+ (re.* (re.+ (re.union (re.+ (re.* (re.* (str.to.re "pppp")))) (re.union (re.* (re.* (str.to.re "qqq"))) (re.+ (re.union (str.to.re "rrrr") (str.to.re "sss")))))))))) (re.+ (re.* (re.* (re.union (re.union (re.+ (re.union (re.union (re.* (str.to.re "tt")) (re.* (str.to.re "uuuu"))) (re.+ (re.* (str.to.re "vvv"))))) (re.union (re.* (re.+ (re.union (str.to.re "wwww") (str.to.re "xxxx")))) (re.union (re.union (re.* (str.to.re "yyy")) (re.+ (str.to.re "zzzzz"))) (re.union (re.union (str.to.re "AA") (str.to.re "BBBBB")) (re.union (str.to.re "CC") (str.to.re "DD")))))) (re.union (re.union (re.union (re.+ (re.union (str.to.re "EEEEE") (str.to.re "FF"))) (re.* (re.+ (str.to.re "GG")))) (re.* (re.* (re.* (str.to.re "HH"))))) (re.union (re.* (re.* (re.* (str.to.re "IIII")))) (re.+ (re.union (re.+ (str.to.re "JJJ")) (re.+ (str.to.re "KKKK")))))))))))) (re.+ (re.+ (re.union (re.union (re.union (re.union (re.* (re.+ (re.+ (re.* (re.+ (str.to.re "LL")))))) (re.union (re.union (re.+ (re.* (re.* (str.to.re "MMM")))) (re.+ (re.+ (re.+ (str.to.re "NNNN"))))) (re.+ (re.* (re.* (re.union (str.to.re "OO") (str.to.re "PPPPP"))))))) (re.* (re.* (re.union (re.union (re.union (re.union (str.to.re "QQ") (str.to.re "RRRR")) (re.union (str.to.re "SSS") (str.to.re "TTTTT"))) (re.+ (re.+ (str.to.re "UU")))) (re.union (re.+ (re.+ (str.to.re "VVV"))) (re.union (re.* (str.to.re "WWWW")) (re.* (str.to.re "XXXXX")))))))) (re.* (re.+ (re.* (re.* (re.+ (re.+ (re.* (str.to.re "YY"))))))))) (re.+ (re.union (re.+ (re.+ (re.union (re.* (re.* (re.+ (str.to.re "ZZZZZ")))) (re.union (re.* (re.* (str.to.re "!!!"))) (re.+ (re.* (str.to.re """"""""""""))))))) (re.union (re.union (re.+ (re.union (re.union (re.* (str.to.re "####")) (re.union (str.to.re "$$$$$") (str.to.re "%%"))) (re.* (re.* (str.to.re "&&"))))) (re.+ (re.+ (re.union (re.+ (str.to.re "'''''")) (re.* (str.to.re "((((")))))) (re.union (re.union (re.union (re.union (re.+ (str.to.re "))")) (re.* (str.to.re "**"))) (re.* (re.* (str.to.re "++++")))) (re.+ (re.+ (re.* (str.to.re ",,,,,"))))) (re.+ (re.union (re.union (re.+ (str.to.re "--")) (re.* (str.to.re "..."))) (re.* (re.+ (str.to.re "///")))))))))))))) (re.+ (re.+ (re.union (re.* (re.union (re.union (re.* (re.union (re.* (re.+ (re.union (re.union (re.union (str.to.re ":::") (str.to.re ";;")) (re.* (str.to.re "<<<<"))) (re.+ (re.+ (str.to.re "=====")))))) (re.union (re.+ (re.union (re.* (re.+ (str.to.re ">>>"))) (re.union (re.union (str.to.re "???") (str.to.re "@@@@@")) (re.* (str.to.re "[[[[["))))) (re.* (re.+ (re.* (re.union (str.to.re "\\\\\\\\") (str.to.re "]]]]")))))))) (re.+ (re.* (re.+ (re.* (re.* (re.* (re.+ (str.to.re "^^"))))))))) (re.union (re.union (re.+ (re.+ (re.* (re.union (re.* (re.+ (str.to.re "__"))) (re.union (re.* (str.to.re "```")) (re.* (str.to.re "{{{{{"))))))) (re.* (re.+ (re.+ (re.+ (re.* (re.* (str.to.re "||||")))))))) (re.union (re.+ (re.* (re.union (re.union (re.* (re.union (str.to.re "}}") (str.to.re "~~~"))) (re.union (re.+ (str.to.re "00")) (re.union (str.to.re "1111") (str.to.re "22")))) (re.+ (re.* (re.+ (str.to.re "333"))))))) (re.* (re.union (re.* (re.union (re.union (re.+ (str.to.re "444")) (re.union (str.to.re "5555") (str.to.re "6666"))) (re.+ (re.union (str.to.re "777") (str.to.re "888"))))) (re.+ (re.* (re.* (re.* (str.to.re "99999"))))))))))) (re.+ (re.* (re.+ (re.+ (re.* (re.union (re.union (re.union (re.union (re.+ (str.to.re "aaa")) (re.+ (str.to.re "bbbbb"))) (re.union (re.+ (str.to.re "ccccc")) (re.union (str.to.re "dd") (str.to.re "eeee")))) (re.* (re.* (re.+ (str.to.re "ff"))))) (re.+ (re.union (re.* (re.union (str.to.re "ggggg") (str.to.re "hh"))) (re.+ (re.union (str.to.re "ii") (str.to.re "jj"))))))))))))))))))) (re.+ (re.* (re.union (re.+ (re.* (re.+ (re.+ (re.* (re.* (re.+ (re.union (re.* (re.+ (re.union (re.* (re.+ (re.+ (re.* (str.to.re "000"))))) (re.+ (re.* (re.union (re.union (str.to.re "1111") (str.to.re "22")) (re.+ (str.to.re "333")))))))) (re.* (re.* (re.* (re.union (re.* (re.* (re.union (str.to.re "44") (str.to.re "55555")))) (re.* (re.* (re.union (str.to.re "66") (str.to.re "77")))))))))))))))) (re.* (re.union (re.union (re.* (re.+ (re.* (re.union (re.+ (re.+ (re.union (re.union (re.union (re.* (re.+ (re.+ (str.to.re "88888")))) (re.union (re.+ (re.union (str.to.re "999") (str.to.re "aaa"))) (re.union (re.* (str.to.re "bbb")) (re.union (str.to.re "cc") (str.to.re "ddd"))))) (re.union (re.union (re.* (re.union (str.to.re "eeeee") (str.to.re "fffff"))) (re.* (re.union (str.to.re "gg") (str.to.re "hhhh")))) (re.union (re.* (re.union (str.to.re "iiiii") (str.to.re "jjjj"))) (re.union (re.+ (str.to.re "kkk")) (re.+ (str.to.re "llll")))))) (re.+ (re.+ (re.union (re.* (re.* (str.to.re "mmm"))) (re.+ (re.* (str.to.re "nnnn"))))))))) (re.+ (re.union (re.union (re.+ (re.* (re.+ (re.* (re.* (str.to.re "ooo")))))) (re.union (re.union (re.* (re.* (re.+ (str.to.re "pp")))) (re.union (re.union (re.+ (str.to.re "qqqq")) (re.+ (str.to.re "rr"))) (re.+ (re.* (str.to.re "ss"))))) (re.union (re.union (re.* (re.* (str.to.re "tt"))) (re.union (re.+ (str.to.re "uuuu")) (re.union (str.to.re "vvv") (str.to.re "www")))) (re.* (re.* (re.union (str.to.re "xxx") (str.to.re "yyyy"))))))) (re.union (re.+ (re.+ (re.union (re.* (re.union (str.to.re "zz") (str.to.re "AAA"))) (re.+ (re.* (str.to.re "BBBB")))))) (re.+ (re.+ (re.+ (re.union (re.* (str.to.re "CCC")) (re.+ (str.to.re "DDD"))))))))))))) (re.* (re.+ (re.* (re.union (re.union (re.* (re.+ (re.union (re.* (re.union (re.union (re.union (str.to.re "EEEE") (str.to.re "FFFFF")) (re.* (str.to.re "GGGGG"))) (re.* (re.* (str.to.re "HHHH"))))) (re.union (re.+ (re.* (re.+ (str.to.re "II")))) (re.union (re.union (re.union (str.to.re "JJJ") (str.to.re "KKKKK")) (re.+ (str.to.re "LLLLL"))) (re.* (re.* (str.to.re "MMMM")))))))) (re.+ (re.union (re.+ (re.+ (re.+ (re.+ (re.* (str.to.re "NNN")))))) (re.union (re.* (re.* (re.* (re.* (str.to.re "OOOOO"))))) (re.union (re.union (re.+ (re.union (str.to.re "PPPPP") (str.to.re "QQQQQ"))) (re.* (re.* (str.to.re "RRRRR")))) (re.* (re.union (re.* (str.to.re "SS")) (re.+ (str.to.re "TTT"))))))))) (re.+ (re.* (re.* (re.* (re.union (re.* (re.+ (re.union (str.to.re "UUUU") (str.to.re "VVVVV")))) (re.union (re.* (re.union (str.to.re "WW") (str.to.re "XXX"))) (re.+ (re.+ (str.to.re "YYYY")))))))))))))) (re.union (re.+ (re.* (re.union (re.union (re.* (re.union (re.+ (re.* (re.* (re.* (re.+ (re.* (str.to.re "ZZZZZ"))))))) (re.union (re.* (re.* (re.+ (re.* (re.+ (str.to.re "!!!!")))))) (re.* (re.union (re.union (re.union (re.+ (str.to.re """""""""""")) (re.union (str.to.re "###") (str.to.re "$$$$"))) (re.+ (re.+ (str.to.re "%%%%%")))) (re.* (re.+ (re.union (str.to.re "&&&") (str.to.re "''''"))))))))) (re.union (re.* (re.+ (re.union (re.+ (re.union (re.* (re.* (str.to.re "(("))) (re.* (re.union (str.to.re "))") (str.to.re "****"))))) (re.* (re.union (re.+ (re.+ (str.to.re "+++++"))) (re.union (re.union (str.to.re ",,,,,") (str.to.re "--")) (re.+ (str.to.re "...")))))))) (re.union (re.* (re.* (re.union (re.* (re.+ (re.* (str.to.re "////")))) (re.union (re.union (re.union (str.to.re ":::") (str.to.re ";;;;;")) (re.* (str.to.re "<<<"))) (re.* (re.* (str.to.re "==="))))))) (re.* (re.* (re.union (re.* (re.+ (re.+ (str.to.re ">>>>>")))) (re.+ (re.union (re.* (str.to.re "??")) (re.* (str.to.re "@@")))))))))) (re.+ (re.* (re.* (re.+ (re.+ (re.* (re.+ (re.* (re.* (str.to.re "[[[[["))))))))))))) (re.union (re.+ (re.* (re.* (re.* (re.union (re.* (re.union (re.union (re.union (re.+ (re.+ (str.to.re "\\\\\\\\\\"))) (re.union (re.union (str.to.re "]]]]]") (str.to.re "^^^")) (re.+ (str.to.re "____")))) (re.union (re.union (re.union (str.to.re "```") (str.to.re "{{{")) (re.* (str.to.re "|||||"))) (re.union (re.+ (str.to.re "}}}")) (re.union (str.to.re "~~~~~") (str.to.re "000"))))) (re.* (re.union (re.+ (re.union (str.to.re "111") (str.to.re "22"))) (re.+ (re.+ (str.to.re "33333"))))))) (re.* (re.+ (re.+ (re.union (re.+ (re.* (str.to.re "4444"))) (re.+ (re.union (str.to.re "55555") (str.to.re "66666")))))))))))) (re.* (re.union (re.+ (re.* (re.* (re.union (re.+ (re.+ (re.* (re.+ (re.union (str.to.re "77777") (str.to.re "8888")))))) (re.* (re.union (re.union (re.union (re.+ (str.to.re "99")) (re.* (str.to.re "aaaaa"))) (re.+ (re.+ (str.to.re "bbb")))) (re.union (re.union (re.* (str.to.re "ccccc")) (re.+ (str.to.re "ddddd"))) (re.union (re.union (str.to.re "eee") (str.to.re "ff")) (re.+ (str.to.re "ggg")))))))))) (re.+ (re.+ (re.union (re.+ (re.* (re.+ (re.union (re.union (re.* (str.to.re "hhhh")) (re.* (str.to.re "iiii"))) (re.+ (re.+ (str.to.re "jjjjj"))))))) (re.* (re.* (re.union (re.+ (re.union (re.union (str.to.re "kkk") (str.to.re "ll")) (re.* (str.to.re "mm")))) (re.union (re.union (re.union (str.to.re "nnn") (str.to.re "ooo")) (re.+ (str.to.re "pp"))) (re.+ (re.+ (str.to.re "qqqq"))))))))))))))))))))))
(assert (<= 15 (str.len var0)))
(check-sat)